============================[ Problem Statistics ]=============================|                                                                             ||  Number of variables:          4242                                         ||  Number of clauses:            9742                                         ||  Parse time:                   0.15 s                                       ||                                                                             |============================[ Search Statistics ]==============================| Conflicts |          ORIGINAL         |          LEARNT          | Progress ||           |    Vars  Clauses Literals |    Limit  Clauses Lit/Cl |          |==============================================================================================================================================================restarts              : 1conflicts             : 88             (359 /sec)decisions             : 171            (0.00 % random) (698 /sec)propagations          : 8230           (33592 /sec)conflict literals     : 4543           (95.98 % deleted)CPU time              : 0.245 sSATISFIABLE